p cnf 136 460
-1 2 -3 0
1 -2 -3 0
-1 -2 3 0
1 2 3 0
-4 3 0
-4 3 0
-3 4 0
9 3 0
9 8 0
-3 -8 -9 0
-10 -7 0
-10 9 0
7 -9 10 0
-11 -10 0
-11 7 0
10 -7 11 0
6 -11 -12 0
-6 11 -12 0
6 11 12 0
-6 -11 12 0
-13 12 0
-13 -11 0
-12 11 13 0
14 -5 0
14 -13 0
5 13 -14 0
-4 -14 -15 0
4 14 -15 0
-4 14 15 0
4 -14 15 0
-7 16 -17 0
7 -16 -17 0
-7 -16 17 0
7 16 17 0
19 2 0
19 18 0
-2 -18 -19 0
21 19 0
21 20 0
-19 -20 -21 0
22 -21 0
22 9 0
21 -9 -22 0
23 -18 -24 0
-23 18 -24 0
23 18 24 0
-23 -18 24 0
-25 2 0
-25 -24 0
-2 24 25 0
-26 -22 0
-26 -25 0
22 25 26 0
-27 8 -28 0
27 -8 -28 0
-27 -8 28 0
27 8 28 0
29 26 0
29 28 0
-26 -28 -29 0
-30 29 0
-30 20 0
-29 -20 30 0
31 -16 0
31 -26 0
16 26 -31 0
-32 30 0
-32 31 0
-30 -31 32 0
33 -17 0
33 -32 0
17 32 -33 0
34 -15 0
34 33 0
15 -33 -34 0
-35 24 0
-35 28 0
-24 -28 35 0
37 -27 0
37 -36 0
27 36 -37 0
38 -35 0
38 37 0
35 -37 -38 0
39 -34 0
39 38 0
34 -38 -39 0
6 -20 -40 0
-6 20 -40 0
6 20 40 0
-6 -20 40 0
24 28 -41 0
-24 -28 -41 0
24 -28 41 0
-24 28 41 0
41 -21 -42 0
-41 21 -42 0
41 21 42 0
-41 -21 42 0
-1 43 -44 0
1 -43 -44 0
-1 -43 44 0
1 43 44 0
-45 44 0
-45 6 0
-44 -6 45 0
47 45 0
47 46 0
-45 -46 -47 0
-48 -43 0
-48 -27 0
43 27 48 0
49 48 0
49 27 0
-48 -27 -49 0
50 -8 0
50 49 0
8 -49 -50 0
-47 -50 -51 0
47 50 -51 0
-47 50 51 0
47 -50 51 0
26 52 -53 0
-26 -52 -53 0
26 -52 53 0
-26 52 53 0
-54 51 0
-54 -53 0
-51 53 54 0
55 -42 0
55 -54 0
42 54 -55 0
48 29 -56 0
-48 -29 -56 0
48 -29 56 0
-48 29 56 0
57 55 0
57 -56 0
-55 56 -57 0
-58 57 0
-58 -3 0
-57 3 58 0
59 -40 0
59 58 0
40 -58 -59 0
10 -16 -60 0
-10 16 -60 0
10 16 60 0
-10 -16 60 0
61 -44 0
61 60 0
44 -60 -61 0
-16 -23 -62 0
16 23 -62 0
-16 23 62 0
16 -23 62 0
63 62 0
63 -42 0
-62 42 -63 0
64 -61 0
64 63 0
61 -63 -64 0
65 -27 0
65 64 0
27 -64 -65 0
-66 52 0
-66 -6 0
-52 6 66 0
50 -13 -67 0
-50 13 -67 0
50 13 67 0
-50 -13 67 0
-68 55 0
-68 -67 0
-55 67 68 0
66 -68 -69 0
-66 68 -69 0
66 68 69 0
-66 -68 69 0
65 -69 -70 0
-65 69 -70 0
65 69 70 0
-65 -69 70 0
-45 21 -71 0
45 -21 -71 0
-45 -21 71 0
45 21 71 0
70 71 -72 0
-70 -71 -72 0
70 -71 72 0
-70 71 72 0
73 59 0
73 72 0
-59 -72 -73 0
-39 -73 -74 0
39 73 -74 0
-39 73 74 0
39 -73 74 0
-75 -13 0
-75 -12 0
13 12 75 0
76 29 0
76 -5 0
-29 5 -76 0
77 75 0
77 -76 0
-75 76 -77 0
78 42 0
78 1 0
-42 -1 -78 0
-60 48 -79 0
60 -48 -79 0
-60 -48 79 0
60 48 79 0
80 78 0
80 79 0
-78 -79 -80 0
-81 24 0
-81 -80 0
-24 80 81 0
82 77 0
82 81 0
-77 -81 -82 0
83 -74 0
83 82 0
74 -82 -83 0
84 16 0
84 -1 0
-16 1 -84 0
8 84 -85 0
-8 -84 -85 0
8 -84 85 0
-8 84 85 0
-86 -8 0
-86 -2 0
8 2 86 0
-87 20 0
-87 -45 0
-20 45 87 0
-86 -87 -88 0
86 87 -88 0
-86 87 88 0
86 -87 88 0
-89 88 0
-89 56 0
-88 -56 89 0
89 -27 -90 0
-89 27 -90 0
89 27 90 0
-89 -27 90 0
-91 3 0
-91 -55 0
-3 55 91 0
90 91 -92 0
-90 -91 -92 0
90 -91 92 0
-90 91 92 0
-85 -92 -93 0
85 92 -93 0
-85 92 93 0
85 -92 93 0
-10 8 -94 0
10 -8 -94 0
-10 -8 94 0
10 8 94 0
95 -93 0
95 -94 0
93 94 -95 0
-83 95 -96 0
83 -95 -96 0
-83 -95 96 0
83 95 96 0
97 62 0
97 52 0
-62 -52 -97 0
-98 -45 0
-98 11 0
45 -11 98 0
-7 -99 -100 0
7 99 -100 0
-7 99 100 0
7 -99 100 0
49 28 -101 0
-49 -28 -101 0
49 -28 101 0
-49 28 101 0
-42 101 -102 0
42 -101 -102 0
-42 -101 102 0
42 101 102 0
-100 102 -103 0
100 -102 -103 0
-100 -102 103 0
100 102 103 0
104 -98 0
104 -103 0
98 103 -104 0
105 -97 0
105 -104 0
97 104 -105 0
3 -51 -106 0
-3 51 -106 0
3 51 106 0
-3 -51 106 0
-107 -48 0
-107 12 0
48 -12 107 0
-106 -107 -108 0
106 107 -108 0
-106 107 108 0
106 -107 108 0
-109 -7 0
-109 27 0
7 -27 109 0
-110 46 0
-110 -67 0
-46 67 110 0
-109 110 -111 0
109 -110 -111 0
-109 -110 111 0
109 110 111 0
108 111 -112 0
-108 -111 -112 0
108 -111 112 0
-108 111 112 0
113 -88 0
113 -9 0
88 9 -113 0
114 113 0
114 113 0
-113 -114 0
-115 -112 0
-115 114 0
112 -114 115 0
116 -7 0
116 -88 0
7 88 -116 0
117 54 0
117 41 0
-54 -41 -117 0
117 -56 -118 0
-117 56 -118 0
117 56 118 0
-117 -56 118 0
116 -118 -119 0
-116 118 -119 0
116 118 119 0
-116 -118 119 0
-120 51 0
-120 41 0
-51 -41 120 0
-121 -119 0
-121 120 0
119 -120 121 0
-122 -9 0
-122 -9 0
9 122 0
123 121 0
123 -122 0
-121 122 -123 0
124 -62 0
124 56 0
62 -56 -124 0
67 -125 0
-67 -125 0
-126 -24 0
-126 48 0
24 -48 126 0
-127 125 0
-127 126 0
-125 -126 127 0
-124 -127 -128 0
124 127 -128 0
-124 127 128 0
124 -127 128 0
-129 89 0
-129 110 0
-89 -110 129 0
130 -41 0
130 -88 0
41 88 -130 0
-131 129 0
-131 130 0
-129 -130 131 0
-132 -128 0
-132 131 0
128 -131 132 0
133 123 0
133 -132 0
-123 132 -133 0
134 -115 0
134 -133 0
115 133 -134 0
-135 105 0
-135 -134 0
-105 134 135 0
-136 -96 0
-136 135 0
96 -135 136 0
-133 -76 51 99 0
15 -35 -54 -41 28 0
-88 -101 115 0
-107 -56 -92 109 3 82 0
-80 -117 -75 0
60 -6 74 -128 0
68 -65 127 0
48 42 -92 0
-49 37 0
-113 43 -35 79 0
95 84 43 30 -116 0
-86 32 -29 -133 42 0
-27 -111 3 58 102 0
47 -76 52 -116 -66 0
-127 -23 105 0
43 57 0
9 -52 0
114 103 -93 0
126 -109 78 49 16 0
44 -6 8 -2 -120 0
-135 112 87 0
21 -26 12 115 -94 0
26 -45 0
78 -123 -111 -95 0
106 -119 -54 0
1 -77 -25 122 99 0
-14 -57 74 -96 -37 0
44 -82 29 0
7 -58 134 97 -6 0
-85 -101 -117 -128 0
88 -65 85 -135 0
62 96 3 18 60 43 0
61 -86 20 -30 0
-127 48 -125 60 0
6 116 39 0
-81 107 0
-47 16 0
-92 3 105 36 123 0
101 -54 68 -6 26 0
88 -129 -98 -74 0
70 60 43 0
126 90 -38 0
-131 5 14 0
61 120 -25 0
28 -115 -114 -87 8 -10 0
-110 86 108 0
-100 -131 58 68 85 -81 0
-14 -68 -42 -40 -85 -41 0
119 -52 -84 -72 22 65 0
103 -88 0
-9 22 79 -119 0
-130 93 0
26 28 -49 111 0
70 -128 0
-127 -26 -99 119 -31 -102 0
10 -53 -75 -93 0
22 -91 111 0
-1 118 -73 64 -28 0
-89 -88 0
-3 48 -13 -4 0
136 0
